minor
S
H
72 14
38 9
36 9
41 9
36 9
38 9
38 9
38 9
38 9
38 9
36 9
41 9
36 9
38 9
38 9
36 9
38 9
36 9
36 9
41 9
36 9
36 9
36 9
41 9
41 9
36 9
36 9
41 9
36 9
38 9
43 9
41 9
40 9
36 9
36 9
41 9
36 9
36 9
37 9
38 9
38 9
33 9
33 9
38 9
33 9
35 9
40 9
38 9
37 9
38 9
36 9
41 9
36 9
38 9
38 9
38 9
38 9
38 9
36 9
41 9
36 9
38 9
38 9
36 9
38 9
72 14
38 9
36 9
41 9
36 9
38 9
38 9
38 9
38 9
38 9
36 9
41 9
36 9
38 9
38 9
36 9
38 9
36 9
36 9
41 9
36 9
36 9
36 9
41 9
41 9
36 9
36 9
41 9
36 9
38 9
43 9
41 9
40 9
36 9
36 9
41 9
36 9
36 9
37 9
38 9
38 9
33 9
33 9
38 9
33 9
35 9
40 9
38 9
37 9
38 9
36 9
41 9
36 9
38 9
38 9
38 9
38 9
38 9
36 9
41 9
36 9
38 9
38 9
36 9
38 9
E
S
L
72 14
214 9
189 9
110 9
189 9
214 9
226 9
238 9
226 9
214 9
189 9
110 9
189 9
214 9
214 9
189 9
214 9
31 9
31 9
33 9
33 9
31 9
31 9
33 9
33 9
31 9
31 9
33 9
33 9
31 9
35 9
36 9
36 9
31 9
31 9
33 9
33 9
31 9
32 9
33 9
33 9
28 9
28 9
29 9
29 9
28 9
32 9
33 9
33 9
214 9
189 9
110 9
189 9
214 9
226 9
238 9
226 9
214 9
189 9
110 9
189 9
214 9
214 9
189 9
214 9
72 14
214 9
189 9
110 9
189 9
214 9
226 9
238 9
226 9
214 9
189 9
110 9
189 9
214 9
214 9
189 9
214 9
31 9
31 9
33 9
33 9
31 9
31 9
33 9
33 9
31 9
31 9
33 9
33 9
31 9
35 9
36 9
36 9
31 9
31 9
33 9
33 9
31 9
32 9
33 9
33 9
28 9
28 9
29 9
29 9
28 9
32 9
33 9
33 9
214 9
189 9
110 9
189 9
214 9
226 9
238 9
226 9
214 9
189 9
110 9
189 9
214 9
214 9
189 9
214 9
E
S
L
72 14
26 9
24 9
29 9
24 9
26 9
26 9
26 9
26 9
26 9
24 9
29 9
24 9
26 9
26 9
24 9
26 9
24 9
24 9
29 9
29 9
24 9
24 9
29 9
29 9
24 9
24 9
29 9
29 9
26 9
26 9
24 9
24 9
24 9
24 9
29 9
29 9
24 9
25 9
26 9
26 9
21 9
21 9
26 9
26 9
28 9
23 9
26 9
25 9
26 9
24 9
29 9
24 9
26 9
26 9
26 9
26 9
26 9
24 9
29 9
24 9
26 9
26 9
24 9
26 9
72 14
26 9
24 9
29 9
24 9
26 9
26 9
26 9
26 9
26 9
24 9
29 9
24 9
26 9
26 9
24 9
26 9
24 9
24 9
29 9
29 9
24 9
24 9
29 9
29 9
24 9
24 9
29 9
29 9
26 9
26 9
24 9
24 9
24 9
24 9
29 9
29 9
24 9
25 9
26 9
26 9
21 9
21 9
26 9
26 9
28 9
23 9
26 9
25 9
26 9
24 9
29 9
24 9
26 9
26 9
26 9
26 9
26 9
24 9
29 9
24 9
26 9
26 9
24 9
26 9
E
S
L
72 14
14 9
12 9
17 9
12 9
14 9
14 9
14 9
14 9
14 9
12 9
17 9
12 9
14 9
14 9
12 9
14 9
12 9
12 9
17 9
17 9
12 9
12 9
17 9
17 9
12 9
12 9
17 9
17 9
14 9
19 9
12 9
12 9
12 9
12 9
17 9
17 9
12 9
13 9
14 9
14 9
9 9
9 9
14 9
14 9
16 9
11 9
9 9
21 9
14 9
12 9
17 9
12 9
14 9
14 9
14 9
14 9
14 9
12 9
17 9
12 9
14 9
14 9
12 9
14 9
72 14
14 9
12 9
17 9
12 9
14 9
14 9
14 9
14 9
14 9
12 9
17 9
12 9
14 9
14 9
12 9
14 9
12 9
12 9
17 9
17 9
12 9
12 9
17 9
17 9
12 9
12 9
17 9
17 9
14 9
19 9
12 9
12 9
12 9
12 9
17 9
17 9
12 9
13 9
14 9
14 9
9 9
9 9
14 9
14 9
16 9
11 9
9 9
21 9
14 9
12 9
17 9
12 9
14 9
14 9
14 9
14 9
14 9
12 9
17 9
12 9
14 9
14 9
12 9
14 9
E
S
H
72 14
38 4
40 4
41 4
43 4
72 4
43 4
45 4
43 4
41 4
40 4
38 4
36 4
38 4
40 4
41 4
34 4
72 4
34 4
33 4
45 4
43 4
41 4
40 4
36 4
38 4
40 4
41 4
43 4
72 4
43 4
45 4
43 4
41 4
40 4
38 4
36 4
34 4
45 4
43 4
41 4
40 4
38 4
36 4
38 4
40 4
38 4
72 7
48 9
48 7
46 2
72 2
45 6
43 2
45 2
72 2
41 7
45 2
72 2
48 7
48 2
72 2
43 4
45 4
46 4
45 7
43 2
72 2
41 7
72 4
48 9
48 7
46 2
72 2
45 6
43 2
45 2
72 2
41 7
45 2
72 2
43 7
43 2
72 2
38 4
40 4
41 4
40 9
40 4
72 7
48 9
48 7
46 2
72 2
45 6
43 2
45 2
72 2
41 7
45 2
72 2
48 7
48 2
72 2
43 4
45 4
46 4
45 7
43 2
72 2
41 7
72 4
45 9
45 7
43 2
72 2
41 6
40 2
41 2
72 2
38 7
41 2
72 2
40 4
35 2
72 2
40 2
72 2
44 4
40 2
72 2
44 2
72 2
45 9
45 4
72 7
38 4
40 4
41 4
43 4
72 4
43 4
45 4
43 4
41 4
40 4
38 4
36 4
38 4
40 4
41 4
34 4
72 4
34 4
33 4
45 4
43 4
41 4
40 4
36 4
38 4
40 4
41 4
43 4
72 4
43 4
45 4
43 4
41 4
40 4
38 4
36 4
34 4
45 4
43 4
41 4
40 4
38 4
36 4
38 4
40 4
38 4
72 14
38 4
40 4
41 4
43 4
72 4
43 4
45 4
43 4
41 4
40 4
38 4
36 4
38 4
40 4
41 4
34 4
72 4
34 4
33 4
45 4
43 4
41 4
40 4
36 4
38 4
40 4
41 4
43 4
72 4
43 4
45 4
43 4
41 4
40 4
38 4
36 4
34 4
45 4
43 4
41 4
40 4
38 4
36 4
38 4
40 4
38 4
72 7
48 9
48 7
46 2
72 2
45 6
43 2
45 2
72 2
41 7
45 2
72 2
48 7
48 2
72 2
43 4
45 4
46 4
45 7
43 2
72 2
41 7
72 4
48 9
48 7
46 2
72 2
45 6
43 2
45 2
72 2
41 7
45 2
72 2
43 7
43 2
72 2
38 4
40 4
41 4
40 9
40 4
72 7
48 9
48 7
46 2
72 2
45 6
43 2
45 2
72 2
41 7
45 2
72 2
48 7
48 2
72 2
43 4
45 4
46 4
45 7
43 2
72 2
41 7
72 4
45 9
45 7
43 2
72 2
41 6
40 2
41 2
72 2
38 7
41 2
72 2
40 4
35 2
72 2
40 2
72 2
44 4
40 2
72 2
44 2
72 2
45 9
45 4
72 7
38 4
40 4
41 4
43 4
72 4
43 4
45 4
43 4
41 4
40 4
38 4
36 4
38 4
40 4
41 4
34 4
72 4
34 4
33 4
45 4
43 4
41 4
40 4
36 4
38 4
40 4
41 4
43 4
72 4
43 4
45 4
43 4
41 4
40 4
38 4
36 4
34 4
45 4
43 4
41 4
40 4
38 4
36 4
38 4
40 4
38 4
E
S
H
72 14
50 4
52 4
53 4
55 4
72 4
55 4
57 4
55 4
53 4
52 4
50 4
48 4
50 4
52 4
53 4
46 4
72 4
46 4
45 4
57 4
55 4
53 4
52 4
48 4
50 4
52 4
53 4
55 4
72 4
55 4
57 4
55 4
53 4
52 4
50 4
48 4
46 4
57 4
55 4
53 4
52 4
50 4
48 4
50 4
52 4
50 4
72 7
48 9
48 7
46 2
72 2
45 6
43 2
45 2
72 2
41 7
45 2
72 2
48 7
48 2
72 2
43 4
45 4
46 4
45 7
43 2
72 2
41 7
72 4
48 9
48 7
46 2
72 2
45 6
43 2
45 2
72 2
41 7
45 2
72 2
43 7
43 2
72 2
38 4
40 4
41 4
40 9
40 4
72 7
48 9
48 7
46 2
72 2
45 6
43 2
45 2
72 2
41 7
45 2
72 2
48 7
48 2
72 2
43 4
45 4
46 4
45 7
43 2
72 2
41 7
72 4
45 9
45 7
43 2
72 2
41 6
40 2
41 2
72 2
38 7
41 2
72 2
40 4
35 2
72 2
40 2
72 2
44 4
40 2
72 2
44 2
72 2
45 9
45 4
72 7
50 4
52 4
53 4
55 4
72 4
55 4
57 4
55 4
53 4
52 4
50 4
48 4
50 4
52 4
53 4
46 4
72 4
46 4
45 4
57 4
55 4
53 4
52 4
48 4
50 4
52 4
53 4
55 4
72 4
55 4
57 4
55 4
53 4
52 4
50 4
48 4
46 4
57 4
55 4
53 4
52 4
50 4
48 4
50 4
52 4
50 4
72 14
50 4
52 4
53 4
55 4
72 4
55 4
57 4
55 4
53 4
52 4
50 4
48 4
50 4
52 4
53 4
46 4
72 4
46 4
45 4
57 4
55 4
53 4
52 4
48 4
50 4
52 4
53 4
55 4
72 4
55 4
57 4
55 4
53 4
52 4
50 4
48 4
46 4
57 4
55 4
53 4
52 4
50 4
48 4
50 4
52 4
50 4
72 7
48 9
48 7
46 2
72 2
45 6
43 2
45 2
72 2
41 7
45 2
72 2
48 7
48 2
72 2
43 4
45 4
46 4
45 7
43 2
72 2
41 7
72 4
48 9
48 7
46 2
72 2
45 6
43 2
45 2
72 2
41 7
45 2
72 2
43 7
43 2
72 2
38 4
40 4
41 4
40 9
40 4
72 7
48 9
48 7
46 2
72 2
45 6
43 2
45 2
72 2
41 7
45 2
72 2
48 7
48 2
72 2
43 4
45 4
46 4
45 7
43 2
72 2
41 7
72 4
45 9
45 7
43 2
72 2
41 6
40 2
41 2
72 2
38 7
41 2
72 2
40 4
35 2
72 2
40 2
72 2
44 4
40 2
72 2
44 2
72 2
45 9
45 4
72 7
50 4
52 4
53 4
55 4
72 4
55 4
57 4
55 4
53 4
52 4
50 4
48 4
50 4
52 4
53 4
46 4
72 4
46 4
45 4
57 4
55 4
53 4
52 4
48 4
50 4
52 4
53 4
55 4
72 4
55 4
57 4
55 4
53 4
52 4
50 4
48 4
46 4
57 4
55 4
53 4
52 4
50 4
48 4
50 4
52 4
50 4
E
S
L
72 14
36 9
36 7
34 2
72 2
33 6
31 2
33 2
72 2
29 7
33 2
72 2
36 7
36 2
72 2
31 4
33 4
34 4
33 7
31 2
72 2
29 7
72 4
36 9
36 7
34 2
72 2
33 6
31 2
33 2
72 2
29 7
33 2
72 2
31 7
31 2
72 2
26 4
28 4
29 4
28 9
28 4
72 7
36 9
36 7
34 2
72 2
33 6
31 2
33 2
72 2
29 7
33 2
72 2
36 7
36 2
72 2
31 4
33 4
34 4
33 7
31 2
72 2
29 7
72 4
33 9
33 7
31 2
72 2
29 6
28 2
29 2
72 2
26 7
29 2
72 2
28 4
23 2
72 2
28 2
72 2
32 4
28 2
72 2
32 2
72 2
33 9
33 4
72 14
36 9
36 7
34 2
72 2
33 6
31 2
33 2
72 2
29 7
33 2
72 2
36 7
36 2
72 2
31 4
33 4
34 4
33 7
31 2
72 2
29 7
72 4
36 9
36 7
34 2
72 2
33 6
31 2
33 2
72 2
29 7
33 2
72 2
31 7
31 2
72 2
26 4
28 4
29 4
28 9
28 4
72 7
36 9
36 7
34 2
72 2
33 6
31 2
33 2
72 2
29 7
33 2
72 2
36 7
36 2
72 2
31 4
33 4
34 4
33 7
31 2
72 2
29 7
72 4
33 9
33 7
31 2
72 2
29 6
28 2
29 2
72 2
26 7
29 2
72 2
28 4
23 2
72 2
28 2
72 2
32 4
28 2
72 2
32 2
72 2
33 9
33 4
E
S
H
72 14
62 4
64 4
65 4
67 4
72 4
67 4
69 4
67 4
65 4
64 4
62 4
60 4
62 4
64 4
65 4
58 4
72 4
58 4
57 4
69 4
67 4
65 4
64 4
60 4
62 4
64 4
65 4
67 4
72 4
67 4
69 4
67 4
65 4
64 4
62 4
60 4
58 4
69 4
67 4
65 4
64 4
62 4
60 4
62 4
64 4
62 4
72 7
60 9
60 7
58 2
72 2
57 6
55 2
57 2
72 2
53 7
57 2
72 2
60 7
60 2
72 2
55 4
57 4
58 4
57 7
55 2
72 2
53 7
72 4
60 9
60 7
58 2
72 2
57 6
55 2
57 2
72 2
53 7
57 2
72 2
55 7
55 2
72 2
50 4
52 4
53 4
52 9
52 4
72 7
60 9
60 7
58 2
72 2
57 6
55 2
57 2
72 2
53 7
57 2
72 2
60 7
60 2
72 2
55 4
57 4
58 4
57 7
55 2
72 2
53 7
72 4
57 9
57 7
55 2
72 2
53 6
52 2
53 2
72 2
50 7
53 2
72 2
52 4
47 2
72 2
52 2
72 2
56 4
52 2
72 2
56 2
72 2
57 9
57 4
72 7
62 4
64 4
65 4
67 4
72 4
67 4
69 4
67 4
65 4
64 4
62 4
60 4
62 4
64 4
65 4
58 4
72 4
58 4
57 4
69 4
67 4
65 4
64 4
60 4
62 4
64 4
65 4
67 4
72 4
67 4
69 4
67 4
65 4
64 4
62 4
60 4
58 4
69 4
67 4
65 4
64 4
62 4
60 4
62 4
64 4
62 4
72 14
62 4
64 4
65 4
67 4
72 4
67 4
69 4
67 4
65 4
64 4
62 4
60 4
62 4
64 4
65 4
58 4
72 4
58 4
57 4
69 4
67 4
65 4
64 4
60 4
62 4
64 4
65 4
67 4
72 4
67 4
69 4
67 4
65 4
64 4
62 4
60 4
58 4
69 4
67 4
65 4
64 4
62 4
60 4
62 4
64 4
62 4
72 7
60 9
60 7
58 2
72 2
57 6
55 2
57 2
72 2
53 7
57 2
72 2
60 7
60 2
72 2
55 4
57 4
58 4
57 7
55 2
72 2
53 7
72 4
60 9
60 7
58 2
72 2
57 6
55 2
57 2
72 2
53 7
57 2
72 2
55 7
55 2
72 2
50 4
52 4
53 4
52 9
52 4
72 7
60 9
60 7
58 2
72 2
57 6
55 2
57 2
72 2
53 7
57 2
72 2
60 7
60 2
72 2
55 4
57 4
58 4
57 7
55 2
72 2
53 7
72 4
57 9
57 7
55 2
72 2
53 6
52 2
53 2
72 2
50 7
53 2
72 2
52 4
47 2
72 2
52 2
72 2
56 4
52 2
72 2
56 2
72 2
57 9
57 4
72 7
62 4
64 4
65 4
67 4
72 4
67 4
69 4
67 4
65 4
64 4
62 4
60 4
62 4
64 4
65 4
58 4
72 4
58 4
57 4
69 4
67 4
65 4
64 4
60 4
62 4
64 4
65 4
67 4
72 4
67 4
69 4
67 4
65 4
64 4
62 4
60 4
58 4
69 4
67 4
65 4
64 4
62 4
60 4
62 4
64 4
62 4
E
S
H
72 14
48 9
48 7
46 2
72 2
45 6
43 2
45 2
72 2
41 7
45 2
72 2
48 7
48 2
72 2
43 4
45 4
46 4
45 7
43 2
72 2
41 7
72 4
48 9
48 7
46 2
72 2
45 6
43 2
45 2
72 2
41 7
45 2
72 2
43 7
43 2
72 2
38 4
40 4
41 4
40 9
40 4
72 7
48 9
48 7
46 2
72 2
45 6
43 2
45 2
72 2
41 7
45 2
72 2
48 7
48 2
72 2
43 4
45 4
46 4
45 7
43 2
72 2
41 7
72 4
45 9
45 7
43 2
72 2
41 6
40 2
41 2
72 2
38 7
41 2
72 2
40 4
35 2
72 2
40 2
72 2
44 4
40 2
72 2
44 2
72 2
45 9
45 4
72 14
48 9
48 7
46 2
72 2
45 6
43 2
45 2
72 2
41 7
45 2
72 2
48 7
48 2
72 2
43 4
45 4
46 4
45 7
43 2
72 2
41 7
72 4
48 9
48 7
46 2
72 2
45 6
43 2
45 2
72 2
41 7
45 2
72 2
43 7
43 2
72 2
38 4
40 4
41 4
40 9
40 4
72 7
48 9
48 7
46 2
72 2
45 6
43 2
45 2
72 2
41 7
45 2
72 2
48 7
48 2
72 2
43 4
45 4
46 4
45 7
43 2
72 2
41 7
72 4
45 9
45 7
43 2
72 2
41 6
40 2
41 2
72 2
38 7
41 2
72 2
40 4
35 2
72 2
40 2
72 2
44 4
40 2
72 2
44 2
72 2
45 9
45 4
E
S
L
14 7
72 4
14 4
14 4
14 4
14 7
72 4
14 4
14 4
14 4
14 7
72 4
14 4
14 4
14 4
14 4
14 4
14 4
14 7
72 4
14 7
72 4
14 4
14 4
14 4
14 7
72 4
14 4
14 4
14 4
14 7
72 4
14 4
14 4
14 4
14 4
14 4
14 4
14 7
72 4
14 7
72 4
14 4
14 4
14 4
14 7
72 4
14 4
14 4
14 4
14 7
72 4
14 4
14 4
14 4
14 7
72 4
14 4
14 4
14 4
14 7
72 4
14 4
14 4
14 4
14 7
72 4
14 4
14 4
14 4
14 7
72 4
14 4
14 4
14 4
14 4
14 4
14 4
14 7
72 4
14 7
72 4
14 4
14 4
14 4
14 7
72 4
14 4
14 4
14 4
14 7
72 4
14 4
14 4
14 4
14 4
14 4
14 4
14 7
72 4
14 7
72 4
14 4
14 4
14 4
14 7
72 4
14 4
14 4
14 4
14 7
72 4
14 4
14 4
14 4
14 4
14 4
14 4
14 7
72 4
14 7
72 4
14 4
14 4
14 4
14 7
72 4
14 4
14 4
14 4
14 7
72 4
14 4
14 4
14 4
14 4
14 4
14 4
14 7
72 4
14 7
72 4
14 4
14 4
14 4
14 7
72 4
14 4
14 4
14 4
14 7
72 4
14 4
14 4
14 4
14 4
14 4
14 4
14 7
72 4
14 7
72 4
14 4
14 4
14 4
14 7
72 4
14 4
14 4
14 4
14 7
72 4
14 4
14 4
14 4
14 7
72 4
14 4
14 4
14 4
14 7
72 4
14 4
14 4
14 4
14 7
72 4
14 4
14 4
14 4
14 7
72 4
14 4
14 4
14 4
14 4
14 4
14 4
14 7
72 4
14 7
72 4
14 4
14 4
14 4
14 7
72 4
14 4
14 4
14 4
14 7
72 4
14 4
14 4
14 4
14 4
14 4
14 4
14 7
72 4
14 7
72 4
14 4
14 4
14 4
14 7
72 4
14 4
14 4
14 4
14 7
72 4
14 4
14 4
14 4
14 4
14 4
14 4
14 7
72 4
14 7
72 4
14 4
14 4
14 4
14 7
72 4
14 4
14 4
14 4
14 7
72 4
14 4
14 4
14 4
14 7
72 4
14 4
14 4
14 4
14 7
72 4
14 4
14 4
14 4
14 7
72 4
14 4
14 4
14 4
14 7
72 4
14 4
14 4
14 4
14 4
14 4
14 4
14 7
72 4
14 7
72 4
14 4
14 4
14 4
14 7
72 4
14 4
14 4
14 4
14 7
72 4
14 4
14 4
14 4
14 4
14 4
14 4
14 7
72 4
14 7
72 4
14 4
14 4
14 4
14 7
72 4
14 4
14 4
14 4
14 7
72 4
14 4
14 4
14 4
14 4
14 4
14 4
14 7
72 4
14 7
72 4
14 4
14 4
14 4
14 7
72 4
14 4
14 4
14 4
14 7
72 4
14 4
14 4
14 4
14 4
14 4
14 4
14 7
72 4
14 7
72 4
14 4
14 4
14 4
14 7
72 4
14 4
14 4
14 4
14 7
72 4
14 4
14 4
14 4
14 4
14 4
14 4
14 7
72 4
14 7
72 4
14 4
14 4
14 4
14 7
72 4
14 4
14 4
14 4
14 7
72 4
14 4
14 4
14 4
14 7
72 4
14 4
14 4
14 4
14 7
72 4
14 4
14 4
14 4
14 7
72 4
14 4
14 4
14 4
14 7
72 4
14 4
14 4
14 4
14 4
14 4
14 4
14 7
E
S
L
30 2
72 4
30 0
72 2
30 0
72 4
30 0
72 4
30 0
72 4
30 0
72 4
30 0
72 4
30 0
72 4
30 0
72 4
30 0
72 1
30 0
72 0
30 0
30 0
72 2
30 0
30 0
72 2
30 0
72 0
30 0
72 1
30 0
72 1
30 0
72 0
30 0
30 0
72 2
30 2
72 4
30 0
72 2
30 0
72 4
30 0
72 4
30 0
72 4
30 0
72 4
30 0
30 0
72 2
30 0
72 0
30 0
72 1
30 0
72 1
30 0
72 0
30 0
30 0
72 2
30 0
30 0
72 2
30 0
72 0
30 0
72 1
30 0
72 9
30 2
72 4
30 0
72 2
30 0
72 4
30 0
72 4
30 0
72 4
30 0
72 4
30 0
72 4
30 0
72 4
30 0
72 4
30 0
72 1
30 0
72 0
30 0
30 0
72 2
30 0
30 0
72 2
30 0
72 0
30 0
72 1
30 0
72 1
30 0
72 0
30 0
30 0
72 2
30 2
72 4
30 0
72 2
30 0
72 4
30 0
72 4
30 0
72 4
30 0
72 4
30 0
30 0
72 2
30 0
72 0
30 0
72 1
30 0
72 1
30 0
72 0
30 0
30 0
72 2
30 0
30 0
72 2
30 0
72 0
30 0
72 1
30 0
72 9
30 2
72 4
30 0
72 2
30 0
72 4
30 0
72 4
30 0
72 4
30 0
72 4
30 0
72 4
30 0
72 4
30 0
72 4
30 0
72 1
30 0
72 0
30 0
30 0
72 2
30 0
30 0
72 2
30 0
72 0
30 0
72 1
30 0
72 1
30 0
72 0
30 0
30 0
72 2
30 2
72 4
30 0
72 2
30 0
72 4
30 0
72 4
30 0
72 4
30 0
72 4
30 0
72 4
30 0
72 4
30 0
72 4
30 0
72 1
30 0
72 0
30 0
30 0
72 2
30 0
30 0
72 2
30 0
72 0
30 0
72 1
30 0
72 1
30 0
72 0
30 0
30 0
72 2
30 2
72 4
30 0
72 2
30 0
72 4
30 0
72 4
30 0
72 4
30 0
72 4
30 0
72 4
30 0
72 4
30 0
72 4
30 0
72 1
30 0
72 0
30 0
30 0
72 2
30 0
30 0
72 2
30 0
72 0
30 0
72 1
30 0
72 1
30 0
72 0
30 0
30 0
72 2
30 2
72 4
30 0
72 2
30 0
72 4
30 0
72 4
30 0
72 4
30 0
72 4
30 0
30 0
72 2
30 0
72 0
30 0
72 1
30 0
72 1
30 0
72 0
30 0
30 0
72 2
30 0
30 0
72 2
30 0
72 0
30 0
72 1
30 0
72 9
30 2
72 4
30 0
72 2
30 0
72 4
30 0
72 4
30 0
72 4
30 0
72 4
30 0
72 4
30 0
72 4
30 0
72 4
30 0
72 1
30 0
72 0
30 0
30 0
72 2
30 0
30 0
72 2
30 0
72 0
30 0
72 1
30 0
72 1
30 0
72 0
30 0
30 0
72 2
30 2
72 4
30 0
72 2
30 0
72 4
30 0
72 4
30 0
72 4
30 0
72 4
30 0
30 0
72 2
30 0
72 0
30 0
72 1
30 0
72 1
30 0
72 0
30 0
30 0
72 2
30 0
30 0
72 2
30 0
72 0
30 0
72 1
30 0
72 9
30 2
72 4
30 0
72 2
30 0
72 4
30 0
72 4
30 0
72 4
30 0
72 4
30 0
72 4
30 0
72 4
30 0
72 4
30 0
72 1
30 0
72 0
30 0
30 0
72 2
30 0
30 0
72 2
30 0
72 0
30 0
72 1
30 0
72 1
30 0
72 0
30 0
30 0
72 2
30 2
72 4
30 0
72 2
30 0
72 4
30 0
72 4
30 0
72 4
30 0
72 4
30 0
30 0
72 2
30 0
72 0
30 0
72 1
30 0
72 1
30 0
72 0
30 0
30 0
72 2
30 0
30 0
72 2
30 0
72 0
30 0
72 1
30 0
72 9
30 2
72 4
30 0
72 2
30 0
72 4
30 0
72 4
30 0
72 4
30 0
72 4
30 0
72 4
30 0
72 4
30 0
72 4
30 0
72 1
30 0
72 0
30 0
30 0
72 2
30 0
30 0
72 2
30 0
72 0
30 0
72 1
30 0
72 1
30 0
72 0
30 0
30 0
72 2
30 2
72 4
30 0
72 2
30 0
72 4
30 0
72 4
30 0
72 4
30 0
72 4
30 0
30 0
72 2
30 0
72 0
30 0
72 1
30 0
72 1
30 0
72 0
30 0
30 0
72 2
30 0
30 0
72 2
30 0
72 0
30 0
72 1
30 0
72 9
30 2
72 4
30 0
72 2
30 0
72 4
30 0
72 4
30 0
72 4
30 0
72 4
30 0
72 4
30 0
72 4
30 0
72 4
30 0
72 1
30 0
72 0
30 0
30 0
72 2
30 0
30 0
72 2
30 0
72 0
30 0
72 1
30 0
72 1
30 0
72 0
30 0
30 0
72 2
30 2
72 4
30 0
72 2
30 0
72 4
30 0
72 4
30 0
72 4
30 0
72 4
30 0
30 0
72 2
30 0
72 0
30 0
72 1
30 0
72 1
30 0
72 0
30 0
30 0
72 2
30 0
30 0
72 2
30 0
72 0
30 0
72 1
30 0
72 9
30 2
72 4
30 0
72 2
30 0
72 4
30 0
72 4
30 0
72 4
30 0
72 4
30 0
72 4
30 0
72 4
30 0
72 4
30 0
72 1
30 0
72 0
30 0
30 0
72 2
30 0
30 0
72 2
30 0
72 0
30 0
72 1
30 0
72 1
30 0
72 0
30 0
30 0
72 2
30 2
72 4
30 0
72 2
30 0
72 4
30 0
72 4
30 0
72 4
30 0
72 4
30 0
72 4
30 0
72 4
30 0
72 4
30 0
72 1
30 0
72 0
30 0
30 0
72 2
30 0
30 0
72 2
30 0
72 0
30 0
72 1
30 0
72 1
30 0
72 0
30 0
30 0
72 2
30 2
72 4
30 0
72 2
30 0
72 4
30 0
72 4
30 0
72 4
30 0
72 4
30 0
72 4
30 0
72 4
30 0
72 4
30 0
72 1
30 0
72 0
30 0
30 0
72 2
30 0
30 0
72 2
30 0
72 0
30 0
72 1
30 0
72 1
30 0
72 0
30 0
30 0
72 2
30 2
72 4
30 0
72 2
30 0
72 4
30 0
72 4
30 0
72 4
30 0
72 4
30 0
30 0
72 2
30 0
72 0
30 0
72 1
30 0
72 1
30 0
72 0
30 0
30 0
72 2
30 0
30 0
72 2
30 0
72 0
30 0
72 1
30 0
72 9
30 2
72 4
30 0
72 2
30 0
72 4
30 0
72 4
30 0
72 4
30 0
72 4
30 0
72 4
30 0
72 4
30 0
72 4
30 0
72 1
30 0
72 0
30 0
30 0
72 2
30 0
30 0
72 2
30 0
72 0
30 0
72 1
30 0
72 1
30 0
72 0
30 0
30 0
72 2
30 2
72 4
30 0
72 2
30 0
72 4
30 0
72 4
30 0
72 4
30 0
72 4
30 0
30 0
72 2
30 0
72 0
30 0
72 1
30 0
72 1
30 0
72 0
30 0
30 0
72 2
30 0
30 0
72 2
30 0
72 0
30 0
72 1
30 0
72 9
30 2
72 4
30 0
72 2
30 0
72 4
30 0
72 4
30 0
72 4
30 0
72 4
30 0
72 4
30 0
72 4
30 0
72 4
30 0
72 1
30 0
72 0
30 0
30 0
72 2
30 0
30 0
72 2
30 0
72 0
30 0
72 1
30 0
72 1
30 0
72 0
30 0
30 0
72 2
30 2
72 4
30 0
72 2
30 0
72 4
30 0
72 4
30 0
72 4
30 0
72 4
30 0
30 0
72 2
30 0
72 0
30 0
72 1
30 0
72 1
30 0
72 0
30 0
30 0
72 2
30 0
30 0
72 2
30 0
72 0
30 0
72 1
30 0
72 9
30 2
72 4
30 0
72 2
30 0
72 4
30 0
72 4
30 0
72 4
30 0
72 4
30 0
72 4
30 0
72 4
30 0
72 4
30 0
72 1
30 0
72 0
30 0
30 0
72 2
30 0
30 0
72 2
30 0
72 0
30 0
72 1
30 0
72 1
30 0
72 0
30 0
30 0
72 2
30 2
72 4
30 0
72 2
30 0
72 4
30 0
72 4
30 0
72 4
30 0
72 4
30 0
72 4
30 0
72 4
30 0
72 4
30 0
72 1
30 0
72 0
30 0
30 0
72 2
30 0
30 0
72 2
30 0
72 0
30 0
72 1
30 0
72 1
30 0
72 0
30 0
30 0
72 2
30 2
72 4
30 0
72 2
30 0
72 4
30 0
72 4
30 0
72 4
30 0
72 4
30 0
72 4
30 0
72 4
30 0
72 4
30 0
72 1
30 0
72 0
30 0
30 0
72 2
30 0
30 0
72 2
30 0
72 0
30 0
72 1
30 0
72 1
30 0
72 0
30 0
30 0
72 2
30 2
72 4
30 0
72 2
30 0
72 4
30 0
72 4
30 0
72 4
30 0
72 4
30 0
30 0
72 2
30 0
72 0
30 0
72 1
30 0
72 1
30 0
72 0
30 0
30 0
72 2
30 0
30 0
72 2
30 0
72 0
30 0
72 1
30 0
72 9
30 2
72 4
30 0
72 2
30 0
72 4
30 0
72 4
30 0
72 4
30 0
72 4
30 0
72 4
30 0
72 4
30 0
72 4
30 0
72 1
30 0
72 0
30 0
30 0
72 2
30 0
30 0
72 2
30 0
72 0
30 0
72 1
30 0
72 1
30 0
72 0
30 0
30 0
72 2
30 2
72 4
30 0
72 2
30 0
72 4
30 0
72 4
30 0
72 4
30 0
72 4
30 0
30 0
72 2
30 0
72 0
30 0
72 1
30 0
72 1
30 0
72 0
30 0
30 0
72 2
30 0
30 0
72 2
30 0
72 0
30 0
72 1
30 0
72 9
30 2
72 4
30 0
72 2
30 0
72 4
30 0
72 4
30 0
72 4
30 0
72 4
30 0
72 4
30 0
72 4
30 0
72 4
30 0
72 1
30 0
72 0
30 0
30 0
72 2
30 0
30 0
72 2
30 0
72 0
30 0
72 1
30 0
72 1
30 0
72 0
30 0
30 0
72 2
30 2
72 4
30 0
72 2
30 0
72 4
30 0
72 4
30 0
72 4
30 0
72 4
30 0
30 0
72 2
30 0
72 0
30 0
72 1
30 0
72 1
30 0
72 0
30 0
30 0
72 2
30 0
30 0
72 2
30 0
72 0
30 0
72 1
30 0
72 9
30 2
72 4
30 0
72 2
30 0
72 4
30 0
72 4
30 0
72 4
30 0
72 4
30 0
72 4
30 0
72 4
30 0
72 4
30 0
72 1
30 0
72 0
30 0
30 0
72 2
30 0
30 0
72 2
30 0
72 0
30 0
72 1
30 0
72 1
30 0
72 0
30 0
30 0
72 2
30 2
72 4
30 0
72 2
30 0
72 4
30 0
72 4
30 0
72 4
30 0
72 4
30 0
30 0
72 2
30 0
72 0
30 0
72 1
30 0
72 1
30 0
72 0
30 0
30 0
72 2
30 0
30 0
72 2
30 0
72 0
30 0
72 1
30 0
72 9
30 2
72 4
30 0
72 2
30 0
72 4
30 0
72 4
30 0
72 4
30 0
72 4
30 0
72 4
30 0
72 4
30 0
72 4
30 0
72 1
30 0
72 0
30 0
30 0
72 2
30 0
30 0
72 2
30 0
72 0
30 0
72 1
30 0
72 1
30 0
72 0
30 0
30 0
72 2
30 2
72 4
30 0
72 2
30 0
72 4
30 0
72 4
30 0
72 4
30 0
72 4
30 0
30 0
72 2
30 0
72 0
30 0
72 1
30 0
72 1
30 0
72 0
30 0
30 0
72 2
30 0
30 0
72 2
30 0
72 0
30 0
72 1
30 0
72 9
30 2
72 4
30 0
72 2
30 0
72 4
30 0
72 4
30 0
72 4
30 0
72 4
30 0
72 4
30 0
72 4
30 0
72 4
30 0
72 1
30 0
72 0
30 0
30 0
72 2
30 0
30 0
72 2
30 0
72 0
30 0
72 1
30 0
72 1
30 0
72 0
30 0
30 0
72 2
30 2
72 4
30 0
72 2
30 0
72 4
30 0
72 4
30 0
72 4
30 0
72 4
30 0
72 4
30 0
72 4
30 0
72 4
30 0
72 1
30 0
72 0
30 0
30 0
72 2
30 0
30 0
72 2
30 0
72 0
30 0
72 1
30 0
72 1
30 0
72 0
30 0
30 0
72 2
30 2
72 4
30 0
72 2
30 0
72 4
30 0
72 4
30 0
72 4
30 0
72 4
30 0
72 4
30 0
72 4
30 0
72 4
30 0
72 1
30 0
72 0
30 0
30 0
72 2
30 0
30 0
72 2
30 0
72 0
30 0
72 1
30 0
72 1
30 0
72 0
30 0
30 0
72 2
30 2
72 4
30 0
72 2
30 0
72 4
30 0
72 4
30 0
72 4
30 0
72 4
30 0
30 0
72 2
30 0
72 0
30 0
72 1
30 0
72 1
30 0
72 0
30 0
30 0
72 2
30 0
30 0
72 2
30 0
72 0
30 0
72 1
30 0
E
S
H
57 7
72 13
57 7
72 13
57 7
72 13
57 7
72 13
57 7
72 13
57 7
72 13
57 7
72 13
57 7
72 13
57 12
72 12
57 12
72 12
57 12
72 12
57 12
72 12
57 12
72 12
57 12
72 12
57 12
72 12
57 12
72 12
57 7
72 13
57 7
72 13
57 7
72 13
57 7
72 13
57 7
72 13
57 7
72 13
57 7
72 13
57 7
72 13
57 7
72 13
57 7
72 13
57 7
72 13
57 7
72 13
57 12
72 12
57 12
72 12
57 12
72 12
57 12
72 12
57 12
72 12
57 12
72 12
57 12
72 12
57 12
72 12
57 7
72 13
57 7
72 13
57 7
72 13
57 7
E
S
H
72 14
50 4
52 4
53 4
55 4
72 4
55 4
57 4
55 4
53 4
52 4
50 4
48 4
50 4
52 4
53 4
46 4
72 4
46 4
45 4
57 4
55 4
53 4
52 4
48 4
50 4
52 4
53 4
55 4
72 4
55 4
57 4
55 4
53 4
52 4
50 4
48 4
46 4
57 4
55 4
53 4
52 4
50 4
48 4
50 4
52 4
50 4
72 7
149 2
72 2
108 2
72 2
149 2
72 2
189 2
72 2
149 2
72 2
189 2
72 2
110 7
228 2
72 2
214 7
161 2
72 2
108 9
228 9
214 9
161 7
72 4
149 2
72 2
108 2
72 2
149 2
72 2
189 2
72 2
149 2
72 2
189 2
72 2
110 7
228 2
72 2
214 7
161 2
72 2
240 9
132 9
108 9
108 7
72 4
149 2
72 2
108 2
72 2
149 2
72 2
189 2
72 2
149 2
72 2
189 2
72 2
110 7
228 2
72 2
214 7
161 2
72 2
108 9
121 9
134 9
211 7
72 4
150 2
72 2
122 2
72 2
150 2
72 2
213 2
72 2
150 2
72 2
213 2
72 2
134 7
214 2
72 2
163 7
214 2
72 2
201 2
72 2
160 2
72 2
201 2
72 2
241 2
72 2
201 2
72 2
241 2
72 2
134 9
122 4
72 7
50 4
52 4
53 4
55 4
72 4
55 4
57 4
55 4
53 4
52 4
50 4
48 4
50 4
52 4
53 4
46 4
72 4
46 4
45 4
57 4
55 4
53 4
52 4
48 4
50 4
52 4
53 4
55 4
72 4
55 4
57 4
55 4
53 4
52 4
50 4
48 4
46 4
57 4
55 4
53 4
52 4
50 4
48 4
50 4
52 4
50 4
72 14
50 4
52 4
53 4
55 4
72 4
55 4
57 4
55 4
53 4
52 4
50 4
48 4
50 4
52 4
53 4
46 4
72 4
46 4
45 4
57 4
55 4
53 4
52 4
48 4
50 4
52 4
53 4
55 4
72 4
55 4
57 4
55 4
53 4
52 4
50 4
48 4
46 4
57 4
55 4
53 4
52 4
50 4
48 4
50 4
52 4
50 4
72 7
149 2
72 2
108 2
72 2
149 2
72 2
189 2
72 2
149 2
72 2
189 2
72 2
110 7
228 2
72 2
214 7
161 2
72 2
108 9
228 9
214 9
161 7
72 4
149 2
72 2
108 2
72 2
149 2
72 2
189 2
72 2
149 2
72 2
189 2
72 2
110 7
228 2
72 2
214 7
161 2
72 2
240 9
132 9
108 9
108 7
72 4
149 2
72 2
108 2
72 2
149 2
72 2
189 2
72 2
149 2
72 2
189 2
72 2
110 7
228 2
72 2
214 7
161 2
72 2
108 9
121 9
134 9
211 7
72 4
150 2
72 2
122 2
72 2
150 2
72 2
213 2
72 2
150 2
72 2
213 2
72 2
134 7
214 2
72 2
163 7
214 2
72 2
201 2
72 2
160 2
72 2
201 2
72 2
241 2
72 2
201 2
72 2
241 2
72 2
134 9
122 4
72 7
50 4
52 4
53 4
55 4
72 4
55 4
57 4
55 4
53 4
52 4
50 4
48 4
50 4
52 4
53 4
46 4
72 4
46 4
45 4
57 4
55 4
53 4
52 4
48 4
50 4
52 4
53 4
55 4
72 4
55 4
57 4
55 4
53 4
52 4
50 4
48 4
46 4
57 4
55 4
53 4
52 4
50 4
48 4
50 4
52 4
50 4
E
S
H
72 14
149 2
72 2
108 2
72 2
149 2
72 2
189 2
72 2
149 2
72 2
189 2
72 2
110 7
228 2
72 2
214 7
161 2
72 2
108 9
228 9
214 9
161 7
72 4
149 2
72 2
108 2
72 2
149 2
72 2
189 2
72 2
149 2
72 2
189 2
72 2
110 7
228 2
72 2
214 7
161 2
72 2
240 9
132 9
108 9
108 7
72 4
149 2
72 2
108 2
72 2
149 2
72 2
189 2
72 2
149 2
72 2
189 2
72 2
110 7
228 2
72 2
214 7
161 2
72 2
108 9
121 9
134 9
211 7
72 4
150 2
72 2
122 2
72 2
150 2
72 2
213 2
72 2
150 2
72 2
213 2
72 2
134 7
214 2
72 2
163 7
214 2
72 2
201 2
72 2
160 2
72 2
201 2
72 2
241 2
72 2
201 2
72 2
241 2
72 2
134 9
122 4
72 14
149 2
72 2
108 2
72 2
149 2
72 2
189 2
72 2
149 2
72 2
189 2
72 2
110 7
228 2
72 2
214 7
161 2
72 2
108 9
228 9
214 9
161 7
72 4
149 2
72 2
108 2
72 2
149 2
72 2
189 2
72 2
149 2
72 2
189 2
72 2
110 7
228 2
72 2
214 7
161 2
72 2
240 9
132 9
108 9
108 7
72 4
149 2
72 2
108 2
72 2
149 2
72 2
189 2
72 2
149 2
72 2
189 2
72 2
110 7
228 2
72 2
214 7
161 2
72 2
108 9
121 9
134 9
211 7
72 4
150 2
72 2
122 2
72 2
150 2
72 2
213 2
72 2
150 2
72 2
213 2
72 2
134 7
214 2
72 2
163 7
214 2
72 2
201 2
72 2
160 2
72 2
201 2
72 2
241 2
72 2
201 2
72 2
241 2
72 2
134 9
122 4
E
S
H
72 14
48 9
48 7
46 2
72 2
45 6
43 2
45 2
72 2
41 7
45 2
72 2
48 7
48 2
72 2
43 4
45 4
46 4
45 7
43 2
72 2
41 7
72 4
48 9
48 7
46 2
72 2
45 6
43 2
45 2
72 2
41 7
45 2
72 2
43 7
43 2
72 2
38 4
40 4
41 4
40 9
40 4
72 7
48 9
48 7
46 2
72 2
45 6
43 2
45 2
72 2
41 7
45 2
72 2
48 7
48 2
72 2
43 4
45 4
46 4
45 7
43 2
72 2
41 7
72 4
45 9
45 7
43 2
72 2
41 6
40 2
41 2
72 2
38 7
41 2
72 2
40 4
35 2
72 2
40 2
72 2
44 4
40 2
72 2
44 2
72 2
45 9
45 4
72 14
48 9
48 7
46 2
72 2
45 6
43 2
45 2
72 2
41 7
45 2
72 2
48 7
48 2
72 2
43 4
45 4
46 4
45 7
43 2
72 2
41 7
72 4
48 9
48 7
46 2
72 2
45 6
43 2
45 2
72 2
41 7
45 2
72 2
43 7
43 2
72 2
38 4
40 4
41 4
40 9
40 4
72 7
48 9
48 7
46 2
72 2
45 6
43 2
45 2
72 2
41 7
45 2
72 2
48 7
48 2
72 2
43 4
45 4
46 4
45 7
43 2
72 2
41 7
72 4
45 9
45 7
43 2
72 2
41 6
40 2
41 2
72 2
38 7
41 2
72 2
40 4
35 2
72 2
40 2
72 2
44 4
40 2
72 2
44 2
72 2
45 9
45 4
E
S
L
1459 6
1459 2
1459 4
1459 4
1459 4
1459 4
1459 4
1459 4
1459 4
1157 4
1157 4
1628 4
1459 6
1459 2
1459 4
1459 4
1459 4
1459 4
1459 4
1459 4
1459 4
1459 4
72 7
1459 6
1459 2
1459 4
1459 4
1459 4
1459 4
1459 4
1459 4
1459 4
1157 4
1157 4
1628 4
1459 6
1459 2
1459 4
1459 4
1459 4
1459 4
1459 4
1459 4
1459 4
1459 4
72 7
1459 6
1459 2
1459 4
1157 4
1157 4
1157 4
214 4
214 4
214 4
1157 4
1157 4
1157 4
1459 6
1459 2
1459 4
1603 4
1603 4
1603 4
1747 4
1747 4
1747 4
1603 4
1603 4
1603 4
1459 6
1459 2
1459 4
1157 4
1157 4
1157 4
214 4
214 4
214 4
1157 4
1157 4
1157 4
1459 6
1459 2
1459 4
1459 4
1459 4
1459 4
1157 4
1157 4
1157 4
1459 4
72 7
1157 6
1157 2
1157 4
1157 4
1157 4
1157 4
1457 4
161 4
1457 4
1457 4
1457 4
1457 4
1157 6
1157 2
1157 4
1157 4
1157 4
1157 4
1457 4
161 4
1457 4
1457 4
72 7
1157 6
1157 2
1157 4
1157 4
1157 4
1157 4
1457 4
161 4
1457 4
1457 4
1457 4
1457 4
523 6
523 2
523 4
523 4
523 4
523 4
1157 4
189 4
189 4
1157 4
72 7
1157 6
1157 2
1157 4
1157 4
1157 4
1157 4
1457 4
161 4
1457 4
1457 4
1457 4
1457 4
1157 6
1157 2
1157 4
1302 4
1302 4
1302 4
1459 4
451 4
1459 4
1459 4
72 7
1446 6
1446 2
1446 4
294 4
1446 4
1446 4
1459 4
1459 4
1459 4
1459 4
1459 4
1459 4
1785 6
1785 2
1785 4
1785 4
1785 4
1785 4
501 4
501 4
501 4
357 4
72 7
1459 6
1459 2
1459 4
1157 4
1157 4
1157 4
214 4
214 4
214 4
1157 4
1157 4
1157 4
1459 6
1459 2
1459 4
1603 4
1603 4
1603 4
1747 4
1747 4
1747 4
1603 4
1603 4
1603 4
1459 6
1459 2
1459 4
1157 4
1157 4
1157 4
214 4
214 4
214 4
1157 4
1157 4
1157 4
1459 6
1459 2
1459 4
1459 4
1459 4
1459 4
1157 4
1157 4
1157 4
1459 4
72 7
1459 6
1459 2
1459 4
1459 4
1459 4
1459 4
1459 4
1459 4
1459 4
1157 4
1157 4
1628 4
1459 6
1459 2
1459 4
1459 4
1459 4
1459 4
1459 4
1459 4
1459 4
1459 4
72 7
1459 6
1459 2
1459 4
1459 4
1459 4
1459 4
1459 4
1459 4
1459 4
1157 4
1157 4
1628 4
1459 6
1459 2
1459 4
1459 4
1459 4
1459 4
1459 4
1459 4
1459 4
1459 4
72 7
1459 6
1459 2
1459 4
1157 4
1157 4
1157 4
214 4
214 4
214 4
1157 4
1157 4
1157 4
1459 6
1459 2
1459 4
1603 4
1603 4
1603 4
1747 4
1747 4
1747 4
1603 4
1603 4
1603 4
1459 6
1459 2
1459 4
1157 4
1157 4
1157 4
214 4
214 4
214 4
1157 4
1157 4
1157 4
1459 6
1459 2
1459 4
1459 4
1459 4
1459 4
1157 4
1157 4
1157 4
1459 4
72 7
1157 6
1157 2
1157 4
1157 4
1157 4
1157 4
1457 4
161 4
1457 4
1457 4
1457 4
1457 4
1157 6
1157 2
1157 4
1157 4
1157 4
1157 4
1457 4
161 4
1457 4
1457 4
72 7
1157 6
1157 2
1157 4
1157 4
1157 4
1157 4
1457 4
161 4
1457 4
1457 4
1457 4
1457 4
523 6
523 2
523 4
523 4
523 4
523 4
1157 4
189 4
189 4
1157 4
72 7
1157 6
1157 2
1157 4
1157 4
1157 4
1157 4
1457 4
161 4
1457 4
1457 4
1457 4
1457 4
1157 6
1157 2
1157 4
1302 4
1302 4
1302 4
1459 4
451 4
1459 4
1459 4
72 7
1446 6
1446 2
1446 4
294 4
1446 4
1446 4
1459 4
1459 4
1459 4
1459 4
1459 4
1459 4
1785 6
1785 2
1785 4
1785 4
1785 4
1785 4
501 4
501 4
501 4
357 4
72 7
1459 6
1459 2
1459 4
1157 4
1157 4
1157 4
214 4
214 4
214 4
1157 4
1157 4
1157 4
1459 6
1459 2
1459 4
1603 4
1603 4
1603 4
1747 4
1747 4
1747 4
1603 4
1603 4
1603 4
1459 6
1459 2
1459 4
1157 4
1157 4
1157 4
214 4
214 4
214 4
1157 4
1157 4
1157 4
1459 6
1459 2
1459 4
1459 4
1459 4
1459 4
1157 4
1157 4
1157 4
1459 4
E
X
